RT is False
Default write of storage_offers_DA.csv just to have a file (but constraint should be inactive)
Reading model...
...model read.
creating competitive generators file...
...competitive generators recorded.
Loading data...
.. day-ahead data with real-time VRE data read.
Compiling instance...
...instance created.
Creating Offer Mitigation (model will solve as dispatch if TRUE)...
NOTE: storage offers will not be mitigated
...storage offer mitigation file created
Converting model to MPEC...
...converted
NOTE: initial MIP solve with only storage competitive to get feasible solution
Solving...

Welcome to IBM(R) ILOG(R) CPLEX(R) Interactive Optimizer 12.9.0.0
  with Simplex, Mixed Integer & Barrier Optimizers
5725-A06 5725-A29 5724-Y48 5724-Y49 5724-Y54 5724-Y55 5655-Y21
Copyright IBM Corp. 1988, 2019.  All Rights Reserved.

Type 'help' for a list of available commands.
Type 'help' followed by a command name for more
information on commands.

CPLEX> Logfile 'cplex.log' closed.
Logfile 'C:\Users\Luke\Desktop\test919\logs\tmp42gsp79i.cplex.log' open.
CPLEX> New value for parallel optimization mode: -1
CPLEX> New value for mixed integer optimality gap tolerance: 0.01
CPLEX> New value for integrality tolerance: 1e-09
CPLEX> New value for feasibility tolerance: 0.01
CPLEX> New value for deterministic time limit in ticks: 75000
CPLEX> Problem 'C:\Users\Luke\Desktop\test919\logs\tmpn43axsxc.pyomo.lp' read.
Read time = 0.19 sec. (14.73 ticks)
CPLEX> Problem name         : C:\Users\Luke\Desktop\test919\logs\tmpn43axsxc.pyomo.lp
Objective sense      : Maximize
Variables            :   53805  [Nneg: 1,  Box: 22000,  Free: 4464,
                                 Binary: 27340]
Objective nonzeros   :    9077
Linear constraints   :  123205  [Less: 41346,  Greater: 59096,  Equal: 22763]
  Nonzeros           :  291704
  RHS nonzeros       :   67490

Variables            : Min LB: -5000.000        Max UB: 1000000.       
Objective nonzeros   : Min   : 0.4083333        Max   : 2500.000       
Linear constraints   :
  Nonzeros           : Min   : 0.4083333        Max   : 1000000.       
  RHS nonzeros       : Min   : 0.4083333        Max   : 1000000.       
CPLEX> CPXPARAM_Parallel                                -1
CPXPARAM_Simplex_Tolerances_Feasibility          0.01
CPXPARAM_DetTimeLimit                            75000
CPXPARAM_MIP_Tolerances_MIPGap                   0.01
CPXPARAM_MIP_Tolerances_Integrality              1.0000000000000001e-09
Tried aggregator 3 times.
MIP Presolve eliminated 88725 rows and 19073 columns.
MIP Presolve added 3350 rows and 0 columns.
MIP Presolve modified 24799 coefficients.
Aggregator did 12939 substitutions.
Reduced MIP has 24891 rows, 21237 columns, and 70951 nonzeros.
Reduced MIP has 8400 binaries, 0 generals, 0 SOSs, and 0 indicators.
Presolve time = 0.23 sec. (175.81 ticks)
Probing fixed 398 vars, tightened 2889 bounds.
Probing time = 1.52 sec. (897.93 ticks)
Tried aggregator 2 times.
MIP Presolve eliminated 897 rows and 797 columns.
MIP Presolve modified 2233 coefficients.
Aggregator did 47 substitutions.
Reduced MIP has 23947 rows, 20393 columns, and 68214 nonzeros.
Reduced MIP has 8002 binaries, 0 generals, 0 SOSs, and 0 indicators.
Presolve time = 0.09 sec. (69.07 ticks)
Probing time = 0.03 sec. (16.12 ticks)
Clique table members: 6406.
MIP emphasis: balance optimality and feasibility.
MIP search method: dynamic search.
Parallel mode: opportunistic, using up to 24 threads.
Root relaxation solution time = 0.47 sec. (544.06 ticks)

        Nodes                                         Cuts/
   Node  Left     Objective  IInf  Best Integer    Best Bound    ItCnt     Gap

      0     0        0.0225   841                      0.0225     4332         
*     0+    0                            0.0000        0.0000             0.00%

Root node processing (before b&c):
  Real time             =    6.72 sec. (4767.90 ticks)
Parallel b&c, 24 threads:
  Real time             =    0.00 sec. (0.00 ticks)
  Sync time (average)   =    0.00 sec.
  Wait time (average)   =    0.00 sec.
                          ------------
Total (root+branch&cut) =    6.72 sec. (4767.90 ticks)

Solution pool: 1 solution saved.

MIP - Integer optimal, tolerance (0.01/1e-06):  Objective =  2.0927473088e-09
Current MIP best bound =  2.6049065127e-09 (gap = 5.12159e-10, 0.00%)
Solution time =    6.73 sec.  Iterations = 4332  Nodes = 0 (1)
Deterministic time = 4768.05 ticks  (708.06 ticks/sec)

CPLEX> Incumbent solution written to file 'C:\Users\Luke\Desktop\test919\logs\tmp_ixsiqp4.cplex.sol'.
CPLEX> NOTE: no warmstart specified for MIP iteration, default behavior is true
NOTE: resolving with all competitive generators using storage-only solution to warmstart
Solving...

Welcome to IBM(R) ILOG(R) CPLEX(R) Interactive Optimizer 12.9.0.0
  with Simplex, Mixed Integer & Barrier Optimizers
5725-A06 5725-A29 5724-Y48 5724-Y49 5724-Y54 5724-Y55 5655-Y21
Copyright IBM Corp. 1988, 2019.  All Rights Reserved.

Type 'help' for a list of available commands.
Type 'help' followed by a command name for more
information on commands.

CPLEX> Logfile 'cplex.log' closed.
Logfile 'C:\Users\Luke\Desktop\test919\logs\tmprk2uwvb8.cplex.log' open.
CPLEX> New value for parallel optimization mode: -1
CPLEX> New value for mixed integer optimality gap tolerance: 0.01
CPLEX> New value for integrality tolerance: 1e-09
CPLEX> New value for feasibility tolerance: 0.01
CPLEX> New value for deterministic time limit in ticks: 75000
CPLEX> Problem 'C:\Users\Luke\Desktop\test919\logs\tmpwrm9u4xl.pyomo.lp' read.
Read time = 0.20 sec. (14.75 ticks)
CPLEX> MIP start file 'C:\Users\Luke\Desktop\test919\logs\tmp3uf_8k1h.cplex.mst' read.
CPLEX> Problem name         : C:\Users\Luke\Desktop\test919\logs\tmpwrm9u4xl.pyomo.lp
Objective sense      : Maximize
Variables            :   54525  [Nneg: 1,  Box: 22720,  Free: 4464,
                                 Binary: 27340]
Objective nonzeros   :    9797
Linear constraints   :  123205  [Less: 41346,  Greater: 59096,  Equal: 22763]
  Nonzeros           :  291704
  RHS nonzeros       :   67490

Variables            : Min LB: -5000.000        Max UB: 1000000.       
Objective nonzeros   : Min   : 0.4083333        Max   : 2500.000       
Linear constraints   :
  Nonzeros           : Min   : 0.4083333        Max   : 1000000.       
  RHS nonzeros       : Min   : 0.4083333        Max   : 1000000.       
CPLEX> CPXPARAM_Parallel                                -1
CPXPARAM_Simplex_Tolerances_Feasibility          0.01
CPXPARAM_DetTimeLimit                            75000
CPXPARAM_MIP_Tolerances_MIPGap                   0.01
CPXPARAM_MIP_Tolerances_Integrality              1.0000000000000001e-09
Warning:  No solution found from 1 MIP starts.
Retaining values of one MIP start for possible repair.
Tried aggregator 3 times.
MIP Presolve eliminated 88725 rows and 19793 columns.
MIP Presolve added 3350 rows and 0 columns.
MIP Presolve modified 24799 coefficients.
Aggregator did 12939 substitutions.
Reduced MIP has 24891 rows, 21237 columns, and 70951 nonzeros.
Reduced MIP has 8400 binaries, 0 generals, 0 SOSs, and 0 indicators.
Presolve time = 0.23 sec. (176.18 ticks)
Probing fixed 398 vars, tightened 2889 bounds.
Probing time = 1.52 sec. (897.93 ticks)
Tried aggregator 2 times.
MIP Presolve eliminated 897 rows and 797 columns.
MIP Presolve modified 2233 coefficients.
Aggregator did 47 substitutions.
Reduced MIP has 23947 rows, 20393 columns, and 68214 nonzeros.
Reduced MIP has 8002 binaries, 0 generals, 0 SOSs, and 0 indicators.
Presolve time = 0.09 sec. (69.07 ticks)
Probing time = 0.03 sec. (16.12 ticks)
Clique table members: 6406.
MIP emphasis: balance optimality and feasibility.
MIP search method: dynamic search.
Parallel mode: opportunistic, using up to 24 threads.
Root relaxation solution time = 0.48 sec. (544.06 ticks)

        Nodes                                         Cuts/
   Node  Left     Objective  IInf  Best Integer    Best Bound    ItCnt     Gap

      0     0        0.0225   841                      0.0225     4332         
*     0+    0                            0.0000        0.0000             0.00%

Root node processing (before b&c):
  Real time             =    6.84 sec. (4795.53 ticks)
Parallel b&c, 24 threads:
  Real time             =    0.00 sec. (0.00 ticks)
  Sync time (average)   =    0.00 sec.
  Wait time (average)   =    0.00 sec.
                          ------------
Total (root+branch&cut) =    6.84 sec. (4795.53 ticks)

Solution pool: 1 solution saved.

MIP - Integer optimal, tolerance (0.01/1e-06):  Objective =  2.0736479200e-09
Current MIP best bound =  2.6049065127e-09 (gap = 5.31259e-10, 0.00%)
Solution time =    6.84 sec.  Iterations = 4332  Nodes = 0 (1)
Deterministic time = 4795.68 ticks  (700.71 ticks/sec)

CPLEX> Incumbent solution written to file 'C:\Users\Luke\Desktop\test919\logs\tmp0mfokp7t.cplex.sol'.
CPLEX> Exporting results... 
